NAME          
ROWS
 N  OBJ
 L  c1
COLUMNS
    MARKER    'MARKER'                 'INTORG'
    x[1]      c1        740
    x[1]      OBJ       -880
    x[2]      c1        376
    x[2]      OBJ       -135
    x[3]      c1        796
    x[3]      OBJ       -911
    x[4]      c1        392
    x[4]      OBJ       -431
    x[5]      c1        300
    x[5]      OBJ       -711
    x[6]      c1        821
    x[6]      OBJ       -566
    x[7]      c1        129
    x[7]      OBJ       -275
    x[8]      c1        235
    x[8]      OBJ       -613
    x[9]      c1        476
    x[9]      OBJ       -501
    x[10]     c1        135
    x[10]     OBJ       -922
RHS
    rhs       c1        2200
RANGES
BOUNDS
 LO bounds    x[1]      0
 PL bounds    x[1]
 LO bounds    x[2]      0
 PL bounds    x[2]
 LO bounds    x[3]      0
 PL bounds    x[3]
 LO bounds    x[4]      0
 PL bounds    x[4]
 LO bounds    x[5]      0
 PL bounds    x[5]
 LO bounds    x[6]      0
 PL bounds    x[6]
 LO bounds    x[7]      0
 PL bounds    x[7]
 LO bounds    x[8]      0
 PL bounds    x[8]
 LO bounds    x[9]      0
 PL bounds    x[9]
 LO bounds    x[10]     0
 PL bounds    x[10]
ENDATA
